============================[ Problem Statistics ]=============================|                                                                             ||  Number of variables:          4242                                         ||  Number of clauses:            9941                                         ||  Parse time:                   0.35 s                                       ||                                                                             |============================[ Search Statistics ]==============================| Conflicts |          ORIGINAL         |          LEARNT          | Progress ||           |    Vars  Clauses Literals |    Limit  Clauses Lit/Cl |          |===============================================================================|       100 |    1591     6146   525687 |     2253      100     53 | 62.501 % |===============================================================================restarts              : 2conflicts             : 194            (372 /sec)decisions             : 363            (0.00 % random) (695 /sec)propagations          : 10052          (19257 /sec)conflict literals     : 13556          (95.18 % deleted)CPU time              : 0.522 sSATISFIABLE